p cnf 12 50 
-4 -9 -5 0
6 -10 11 0
-10 -7 -9 0
-12 -3 9 0
-3 2 -12 0
-11 3 9 0
-12 -11 4 0
5 11 12 0
4 -3 -7 0
-1 3 8 0
11 9 -7 0
8 6 -11 0
-5 6 -11 0
-9 3 -8 0
11 1 5 0
-4 12 -6 0
-12 -1 -3 0
11 -12 4 0
-7 4 -11 0
-11 2 -8 0
11 1 -6 0
5 9 12 0
9 7 -2 0
-5 3 8 0
-1 6 -2 0
-5 10 12 0
-12 6 7 0
-2 4 9 0
9 -6 12 0
3 9 6 0
-3 2 -4 0
-10 -4 -8 0
-2 -12 -11 0
2 -10 8 0
5 -8 -4 0
5 9 4 0
-12 9 -3 0
4 -2 -5 0
-8 3 6 0
-7 4 -8 0
-5 3 -12 0
2 -5 -6 0
-7 -6 -8 0
-5 -10 6 0
-6 -2 1 0
-3 -7 10 0
4 -6 -3 0
-9 12 -1 0
6 8 5 0
-4 3 8 0
